20 380
0 1 33.5
0 2 25.6
0 3 5.1
0 4 46.3
0 5 55.6
0 6 50.7
0 7 54.7
0 8 24.4
0 9 44.9
0 10 41.2
0 11 41.5
0 12 36.7
0 13 25.7
0 14 19.9
0 15 56.1
0 16 21.8
0 17 31.3
0 18 54.7
0 19 8.0
1 2 42.5
1 3 35.9
1 4 29.5
1 5 26.6
1 6 20.8
1 7 24.8
1 8 50.3
1 9 14.4
1 10 42.6
1 11 60.9
1 12 58.1
1 13 48.6
1 14 18.9
1 15 46.4
1 16 43.5
1 17 9.8
1 18 55.3
1 19 39.7
2 3 21.1
2 4 36.4
2 5 53.0
2 6 63.2
2 7 53.3
2 8 48.2
2 9 46.8
2 10 19.9
2 11 18.6
2 12 15.6
2 13 50.6
2 14 39.5
2 15 38.0
2 16 47.2
2 17 46.1
2 18 31.2
2 19 20.7
3 4 45.3
3 5 56.2
3 6 54.1
3 7 55.5
3 8 27.6
3 9 46.2
3 10 37.8
3 11 36.5
3 12 31.7
3 13 29.6
3 14 24.1
3 15 53.6
3 16 26.1
3 17 34.8
3 18 51.0
3 19 3.8
4 5 19.5
4 6 45.5
4 7 20.9
4 8 69.7
4 9 20.8
4 10 22.6
4 11 49.6
4 12 49.4
4 13 69.7
4 14 43.3
4 15 17.5
4 16 64.8
4 17 39.0
4 18 30.4
4 19 47.9
5 6 33.4
5 7 2.5
5 8 75.9
5 9 12.2
5 10 42.0
5 11 68.2
5 12 67.4
5 13 74.6
5 14 45.2
5 15 34.3
5 16 69.5
5 17 35.9
5 18 49.4
5 19 59.5
6 7 30.9
6 8 61.2
6 9 24.9
6 10 62.5
6 11 81.6
6 12 78.7
6 13 58.1
6 14 31.7
6 15 63.0
6 16 53.5
6 17 19.4
6 18 74.3
6 19 57.9
7 8 74.5
7 9 10.5
7 10 43.1
7 11 68.9
7 12 67.9
7 13 73.1
7 14 43.5
7 15 36.3
7 16 68.0
7 17 33.9
7 18 51.1
7 19 58.9
8 9 64.1
8 10 65.4
8 11 60.6
8 12 55.3
8 13 4.7
8 14 31.6
8 15 80.4
8 16 7.8
8 17 43.8
8 18 78.6
8 19 27.5
9 10 40.3
9 11 63.7
9 12 62.0
9 13 62.7
9 14 33.1
9 15 38.2
9 16 57.5
9 17 23.7
9 18 50.6
9 19 49.7
10 11 27.8
10 12 28.7
10 13 66.9
10 14 48.1
10 15 18.4
10 16 62.8
10 17 49.8
10 18 14.0
10 19 38.7
11 12 5.3
11 13 63.8
11 14 57.7
11 15 44.9
11 16 61.4
11 17 64.7
11 18 31.4
11 19 34.6
12 13 58.6
12 14 53.6
12 15 46.5
12 16 56.3
12 17 61.3
12 18 34.4
12 19 29.6
13 14 29.7
13 15 81.2
13 16 5.1
13 17 41.4
13 18 80.4
13 19 30.0
14 15 57.9
14 16 24.6
14 17 12.6
14 18 62.1
14 19 27.7
15 16 76.7
15 17 55.5
15 18 16.8
15 19 55.2
16 17 36.4
16 18 76.4
16 19 27.1
17 18 63.1
17 19 38.6
18 19 51.4
